
Gurobi 10.0.1 (linux64) logging started Sun Nov 26 16:59:51 2023

Set parameter LogFile to value "ArtificialInstance/ExperimentV2/S4T5K2/BaDo/gurobi91.txt"
Gurobi Optimizer version 10.0.1 build v10.0.1rc0 (linux64)

CPU model: AMD EPYC 7H12 64-Core Processor, instruction set [SSE2|AVX|AVX2]
Thread count: 128 physical cores, 128 logical processors, using up to 32 threads

Academic license 656792 - for non-commercial use only - registered to b.___@student.vu.nl
Optimize a model with 840 rows, 1360 columns and 4480 nonzeros
Model fingerprint: 0x2fd0827b
Variable types: 0 continuous, 1360 integer (1360 binary)
Coefficient statistics:
  Matrix range     [1e+00, 1e+00]
  Objective range  [2e+00, 2e+01]
  Bounds range     [1e+00, 1e+00]
  RHS range        [1e+00, 1e+00]
Found heuristic solution: objective 549.6528642
Presolve time: 0.01s
Presolved: 840 rows, 1360 columns, 4480 nonzeros
Variable types: 0 continuous, 1360 integer (1360 binary)

Root relaxation: objective 3.054556e+01, 530 iterations, 0.01 seconds (0.00 work units)

    Nodes    |    Current Node    |     Objective Bounds      |     Work
 Expl Unexpl |  Obj  Depth IntInf | Incumbent    BestBd   Gap | It/Node Time

     0     0   30.54556    0  126  549.65286   30.54556  94.4%     -    0s
H    0     0                      86.6428936   30.54556  64.7%     -    0s
H    0     0                      61.0911211   30.54556  50.0%     -    0s
H    0     0                      57.3546820   34.32996  40.1%     -    0s
     0     0   34.32996    0  169   57.35468   34.32996  40.1%     -    0s
H    0     0                      49.7960928   34.32996  31.1%     -    0s
H    0     0                      49.3645290   34.32996  30.5%     -    0s
H    0     0                      48.5481221   36.80793  24.2%     -    0s
H    0     0                      47.2572918   37.81459  20.0%     -    0s
H    0     0                      43.5820609   38.33555  12.0%     -    0s
     0     0   38.33555    0  124   43.58206   38.33555  12.0%     -    0s
H    0     0                      42.8967480   38.33555  10.6%     -    0s
     0     0   39.70312    0   93   42.89675   39.70312  7.44%     -    0s
     0     0   39.70312    0  126   42.89675   39.70312  7.44%     -    0s
     0     0   39.70312    0   89   42.89675   39.70312  7.44%     -    0s
     0     0   39.70312    0  130   42.89675   39.70312  7.44%     -    0s
     0     0   40.51093    0  154   42.89675   40.51093  5.56%     -    0s
     0     0   40.53526    0   66   42.89675   40.53526  5.51%     -    0s
H    0     0                      42.8779110   41.12510  4.09%     -    0s
     0     0   41.12510    0  156   42.87791   41.12510  4.09%     -    0s
     0     0   41.12510    0   81   42.87791   41.12510  4.09%     -    0s
     0     0   41.12510    0  104   42.87791   41.12510  4.09%     -    0s
     0     0   41.12510    0  135   42.87791   41.12510  4.09%     -    0s
     0     0   41.12510    0  136   42.87791   41.12510  4.09%     -    0s
     0     0   42.87791    0  163   42.87791   42.87791  0.00%     -    0s

Cutting planes:
  Gomory: 13
  Clique: 2
  MIR: 1
  Zero half: 34
  RLT: 3

Explored 1 nodes (3334 simplex iterations) in 0.38 seconds (0.14 work units)
Thread count was 32 (of 128 available processors)

Solution count 10: 42.8779 42.8967 43.5821 ... 86.6429

Optimal solution found (tolerance 1.00e-04)
Best objective 4.287791102889e+01, best bound 4.287791102889e+01, gap 0.0000%
